!   File created by MacMolPlt 7.7
 $CONTRL SCFTYP=RHF RUNTYP=OPTIMIZE EXETYP=RUN MAXIT=200 MULT=1 PP=MCP ISPHER=1
    $END
 $SYSTEM TIMLIM=525600 MEMORY=2000000000 MEMDDI=2000 PARALL=.TRUE. $END
 $GUESS GUESS=huckel $END
 $SCF DIRSCF=.TRUE. $END
 $STATPT OPTTOL=0.0001 NSTEP=200 HSSEND=.t. $END
 $FORCE METHOD=SEMINUM VIBANL=.TRUE. $END
 $DATA
6-31G(d) basis for H, C and O. MCP
C1
W    74.0     1.98371    -1.46544    -3.75762
  MCP READ
  s    6
    1          3640.8368000    -0.0351240
    2           121.2545800     0.2016628
    3            26.7617860    -0.5610136
    4             4.9528062     1.0804399
    5             0.9551264    -1.0039041
    6             0.4080150    -0.3089843
  s    6
    1          3640.8368000    -0.0100886
    2           121.2545800     0.0569531
    3            26.7617860    -0.1602766
    4             4.9528062     0.3393107
    5             0.9551264    -0.4908500
    6             0.4080150    -0.2076210
  s    1
    1             0.0980033     1.0000000
  s    1
    1             0.0371872     1.0000000
  p    6
    1          1482.6729000    -0.0105798
    2           305.1466700    -0.0532068
    3            36.8559780     0.2238082
    4             6.4602739    -0.5274349
    5             1.0099155     0.7999809
    6             0.3695267     0.3221521
  p    4
    1             6.4320080    -0.0092080
    2             0.9426640     0.1567920
    3             0.1512680    -0.7549470
    4             0.0624490    -0.3378210
  d    3
    1           269.8134800     0.0073532
    2            70.9226340     0.0590718
    3             7.9146910    -0.2213994
  d    1
    1             0.9458180     1.0000000
  d    1
    1             0.3344778     1.0000000
  d    1
    1             0.1112128     1.0000000
  f    5
    1            81.0889100    -0.0167540
    2            21.8382600    -0.0895750
    3             6.8092780    -0.1539320
    4             0.6575930     0.5256450
    5             0.2183200     0.6017450

O     8.0     1.27033    -0.48732    -2.56432
S   6
1         0.5484671660E+04       0.1831074430E-02
2         0.8252349460E+03       0.1395017220E-01
3         0.1880469580E+03       0.6844507810E-01
4         0.5296450000E+02       0.2327143360E+00
5         0.1689757040E+02       0.4701928980E+00
6         0.5799635340E+01       0.3585208530E+00
L   3
1         0.1553961625E+02      -0.1107775495E+00       0.7087426823E-01
2         0.3599933586E+01      -0.1480262627E+00       0.3397528391E+00
3         0.1013761750E+01       0.1130767015E+01       0.7271585773E+00
L   1
1         0.2700058226E+00       0.1000000000E+01       0.1000000000E+01
D   1
1         0.8000000000E+00       1.0000000

O     8.0     2.76421    -2.64933    -2.42020
S   6
1         0.5484671660E+04       0.1831074430E-02
2         0.8252349460E+03       0.1395017220E-01
3         0.1880469580E+03       0.6844507810E-01
4         0.5296450000E+02       0.2327143360E+00
5         0.1689757040E+02       0.4701928980E+00
6         0.5799635340E+01       0.3585208530E+00
L   3
1         0.1553961625E+02      -0.1107775495E+00       0.7087426823E-01
2         0.3599933586E+01      -0.1480262627E+00       0.3397528391E+00
3         0.1013761750E+01       0.1130767015E+01       0.7271585773E+00
L   1
1         0.2700058226E+00       0.1000000000E+01       0.1000000000E+01
D   1
1         0.8000000000E+00       1.0000000

W    74.0     3.09121    -4.36163    -1.81649
  MCP READ
  s    6
    1          3640.8368000    -0.0351240
    2           121.2545800     0.2016628
    3            26.7617860    -0.5610136
    4             4.9528062     1.0804399
    5             0.9551264    -1.0039041
    6             0.4080150    -0.3089843
  s    6
    1          3640.8368000    -0.0100886
    2           121.2545800     0.0569531
    3            26.7617860    -0.1602766
    4             4.9528062     0.3393107
    5             0.9551264    -0.4908500
    6             0.4080150    -0.2076210
  s    1
    1             0.0980033     1.0000000
  s    1
    1             0.0371872     1.0000000
  p    6
    1          1482.6729000    -0.0105798
    2           305.1466700    -0.0532068
    3            36.8559780     0.2238082
    4             6.4602739    -0.5274349
    5             1.0099155     0.7999809
    6             0.3695267     0.3221521
  p    4
    1             6.4320080    -0.0092080
    2             0.9426640     0.1567920
    3             0.1512680    -0.7549470
    4             0.0624490    -0.3378210
  d    3
    1           269.8134800     0.0073532
    2            70.9226340     0.0590718
    3             7.9146910    -0.2213994
  d    1
    1             0.9458180     1.0000000
  d    1
    1             0.3344778     1.0000000
  d    1
    1             0.1112128     1.0000000
  f    5
    1            81.0889100    -0.0167540
    2            21.8382600    -0.0895750
    3             6.8092780    -0.1539320
    4             0.6575930     0.5256450
    5             0.2183200     0.6017450

O     8.0     3.02200    -4.10061    -0.16632
S   6
1         0.5484671660E+04       0.1831074430E-02
2         0.8252349460E+03       0.1395017220E-01
3         0.1880469580E+03       0.6844507810E-01
4         0.5296450000E+02       0.2327143360E+00
5         0.1689757040E+02       0.4701928980E+00
6         0.5799635340E+01       0.3585208530E+00
L   3
1         0.1553961625E+02      -0.1107775495E+00       0.7087426823E-01
2         0.3599933586E+01      -0.1480262627E+00       0.3397528391E+00
3         0.1013761750E+01       0.1130767015E+01       0.7271585773E+00
L   1
1         0.2700058226E+00       0.1000000000E+01       0.1000000000E+01
D   1
1         0.8000000000E+00       1.0000000

O     8.0     1.80757    -0.38437    -5.28376
S   6
1         0.5484671660E+04       0.1831074430E-02
2         0.8252349460E+03       0.1395017220E-01
3         0.1880469580E+03       0.6844507810E-01
4         0.5296450000E+02       0.2327143360E+00
5         0.1689757040E+02       0.4701928980E+00
6         0.5799635340E+01       0.3585208530E+00
L   3
1         0.1553961625E+02      -0.1107775495E+00       0.7087426823E-01
2         0.3599933586E+01      -0.1480262627E+00       0.3397528391E+00
3         0.1013761750E+01       0.1130767015E+01       0.7271585773E+00
L   1
1         0.2700058226E+00       0.1000000000E+01       0.1000000000E+01
D   1
1         0.8000000000E+00       1.0000000

O     8.0     3.21194    -6.29317    -1.77586
S   6
1         0.5484671660E+04       0.1831074430E-02
2         0.8252349460E+03       0.1395017220E-01
3         0.1880469580E+03       0.6844507810E-01
4         0.5296450000E+02       0.2327143360E+00
5         0.1689757040E+02       0.4701928980E+00
6         0.5799635340E+01       0.3585208530E+00
L   3
1         0.1553961625E+02      -0.1107775495E+00       0.7087426823E-01
2         0.3599933586E+01      -0.1480262627E+00       0.3397528391E+00
3         0.1013761750E+01       0.1130767015E+01       0.7271585773E+00
L   1
1         0.2700058226E+00       0.1000000000E+01       0.1000000000E+01
D   1
1         0.8000000000E+00       1.0000000

H     1.0     3.33553    -6.71887    -0.94973
S   3
1         0.1873113696E+02       0.3349460434E-01
2         0.2825394365E+01       0.2347269535E+00
3         0.6401216923E+00       0.8137573261E+00
S   1
1         0.1612777588E+00       1.0000000
P   1
1         0.1100000000E+01       1.0000000

H     1.0     2.53802     0.08638    -5.63521
S   3
1         0.1873113696E+02       0.3349460434E-01
2         0.2825394365E+01       0.2347269535E+00
3         0.6401216923E+00       0.8137573261E+00
S   1
1         0.1612777588E+00       1.0000000
P   1
1         0.1100000000E+01       1.0000000

O     8.0     0.91025    -2.71081    -4.27033
S   6
1         0.5484671660E+04       0.1831074430E-02
2         0.8252349460E+03       0.1395017220E-01
3         0.1880469580E+03       0.6844507810E-01
4         0.5296450000E+02       0.2327143360E+00
5         0.1689757040E+02       0.4701928980E+00
6         0.5799635340E+01       0.3585208530E+00
L   3
1         0.1553961625E+02      -0.1107775495E+00       0.7087426823E-01
2         0.3599933586E+01      -0.1480262627E+00       0.3397528391E+00
3         0.1013761750E+01       0.1130767015E+01       0.7271585773E+00
L   1
1         0.2700058226E+00       0.1000000000E+01       0.1000000000E+01
D   1
1         0.8000000000E+00       1.0000000

O     8.0     1.25513    -4.69478    -2.20742
S   6
1         0.5484671660E+04       0.1831074430E-02
2         0.8252349460E+03       0.1395017220E-01
3         0.1880469580E+03       0.6844507810E-01
4         0.5296450000E+02       0.2327143360E+00
5         0.1689757040E+02       0.4701928980E+00
6         0.5799635340E+01       0.3585208530E+00
L   3
1         0.1553961625E+02      -0.1107775495E+00       0.7087426823E-01
2         0.3599933586E+01      -0.1480262627E+00       0.3397528391E+00
3         0.1013761750E+01       0.1130767015E+01       0.7271585773E+00
L   1
1         0.2700058226E+00       0.1000000000E+01       0.1000000000E+01
D   1
1         0.8000000000E+00       1.0000000

O     8.0     4.95287    -4.16348    -2.01090
S   6
1         0.5484671660E+04       0.1831074430E-02
2         0.8252349460E+03       0.1395017220E-01
3         0.1880469580E+03       0.6844507810E-01
4         0.5296450000E+02       0.2327143360E+00
5         0.1689757040E+02       0.4701928980E+00
6         0.5799635340E+01       0.3585208530E+00
L   3
1         0.1553961625E+02      -0.1107775495E+00       0.7087426823E-01
2         0.3599933586E+01      -0.1480262627E+00       0.3397528391E+00
3         0.1013761750E+01       0.1130767015E+01       0.7271585773E+00
L   1
1         0.2700058226E+00       0.1000000000E+01       0.1000000000E+01
D   1
1         0.8000000000E+00       1.0000000

O     8.0     3.85376    -1.18670    -4.13904
S   6
1         0.5484671660E+04       0.1831074430E-02
2         0.8252349460E+03       0.1395017220E-01
3         0.1880469580E+03       0.6844507810E-01
4         0.5296450000E+02       0.2327143360E+00
5         0.1689757040E+02       0.4701928980E+00
6         0.5799635340E+01       0.3585208530E+00
L   3
1         0.1553961625E+02      -0.1107775495E+00       0.7087426823E-01
2         0.3599933586E+01      -0.1480262627E+00       0.3397528391E+00
3         0.1013761750E+01       0.1130767015E+01       0.7271585773E+00
L   1
1         0.2700058226E+00       0.1000000000E+01       0.1000000000E+01
D   1
1         0.8000000000E+00       1.0000000

H     1.0     4.46068    -1.68945    -3.63275
S   3
1         0.1873113696E+02       0.3349460434E-01
2         0.2825394365E+01       0.2347269535E+00
3         0.6401216923E+00       0.8137573261E+00
S   1
1         0.1612777588E+00       1.0000000
P   1
1         0.1100000000E+01       1.0000000

H     1.0     5.37718    -4.38740    -2.81557
S   3
1         0.1873113696E+02       0.3349460434E-01
2         0.2825394365E+01       0.2347269535E+00
3         0.6401216923E+00       0.8137573261E+00
S   1
1         0.1612777588E+00       1.0000000
P   1
1         0.1100000000E+01       1.0000000

H     1.0     1.10329    -4.10880    -5.09450
S   3
1         0.1873113696E+02       0.3349460434E-01
2         0.2825394365E+01       0.2347269535E+00
3         0.6401216923E+00       0.8137573261E+00
S   1
1         0.1612777588E+00       1.0000000
P   1
1         0.1100000000E+01       1.0000000

H     1.0     0.80608    -4.11511    -2.79833
S   3
1         0.1873113696E+02       0.3349460434E-01
2         0.2825394365E+01       0.2347269535E+00
3         0.6401216923E+00       0.8137573261E+00
S   1
1         0.1612777588E+00       1.0000000
P   1
1         0.1100000000E+01       1.0000000

P    15.0     2.57877    -5.65991    -4.90322
S   6
1         0.1941330000E+05       0.1851598923E-02
2         0.2909420000E+04       0.1420619174E-01
3         0.6613640000E+03       0.6999945928E-01
4         0.1857590000E+03       0.2400788603E+00
5         0.5919430000E+02       0.4847617180E+00
6         0.2003100000E+02       0.3351998050E+00
L   6
1         0.3394780000E+03      -0.2782170105E-02       0.4564616191E-02
2         0.8101010000E+02      -0.3604990135E-01       0.3369357188E-01
3         0.2587800000E+02      -0.1166310044E+00       0.1397548834E+00
4         0.9452210000E+01       0.9683280364E-01       0.3393617168E+00
5         0.3665660000E+01       0.6144180231E+00       0.4509206237E+00
6         0.1467460000E+01       0.4037980152E+00       0.2385858009E+00
L   3
1         0.2156230000E+01      -0.2529241139E+00      -0.1776531273E-01
2         0.7489970000E+00       0.3285184468E-01       0.2740581964E+00
3         0.2831450000E+00       0.1081254762E+01       0.7854215630E+00
L   1
1         0.9983170000E-01       0.1000000000E+01       0.1000000000E+01
D   1
1         0.5500000000E+00       1.0000000

H     1.0     3.31896    -6.02147    -6.00495
S   3
1         0.1873113696E+02       0.3349460434E-01
2         0.2825394365E+01       0.2347269535E+00
3         0.6401216923E+00       0.8137573261E+00
S   1
1         0.1612777588E+00       1.0000000
P   1
1         0.1100000000E+01       1.0000000

O     8.0     3.35069    -4.80666    -3.98003
S   6
1         0.5484671660E+04       0.1831074430E-02
2         0.8252349460E+03       0.1395017220E-01
3         0.1880469580E+03       0.6844507810E-01
4         0.5296450000E+02       0.2327143360E+00
5         0.1689757040E+02       0.4701928980E+00
6         0.5799635340E+01       0.3585208530E+00
L   3
1         0.1553961625E+02      -0.1107775495E+00       0.7087426823E-01
2         0.3599933586E+01      -0.1480262627E+00       0.3397528391E+00
3         0.1013761750E+01       0.1130767015E+01       0.7271585773E+00
L   1
1         0.2700058226E+00       0.1000000000E+01       0.1000000000E+01
D   1
1         0.8000000000E+00       1.0000000

O     8.0     2.18951    -6.99871    -4.25127
S   6
1         0.5484671660E+04       0.1831074430E-02
2         0.8252349460E+03       0.1395017220E-01
3         0.1880469580E+03       0.6844507810E-01
4         0.5296450000E+02       0.2327143360E+00
5         0.1689757040E+02       0.4701928980E+00
6         0.5799635340E+01       0.3585208530E+00
L   3
1         0.1553961625E+02      -0.1107775495E+00       0.7087426823E-01
2         0.3599933586E+01      -0.1480262627E+00       0.3397528391E+00
3         0.1013761750E+01       0.1130767015E+01       0.7271585773E+00
L   1
1         0.2700058226E+00       0.1000000000E+01       0.1000000000E+01
D   1
1         0.8000000000E+00       1.0000000

O     8.0     1.34390    -4.97446    -5.48030
S   6
1         0.5484671660E+04       0.1831074430E-02
2         0.8252349460E+03       0.1395017220E-01
3         0.1880469580E+03       0.6844507810E-01
4         0.5296450000E+02       0.2327143360E+00
5         0.1689757040E+02       0.4701928980E+00
6         0.5799635340E+01       0.3585208530E+00
L   3
1         0.1553961625E+02      -0.1107775495E+00       0.7087426823E-01
2         0.3599933586E+01      -0.1480262627E+00       0.3397528391E+00
3         0.1013761750E+01       0.1130767015E+01       0.7271585773E+00
L   1
1         0.2700058226E+00       0.1000000000E+01       0.1000000000E+01
D   1
1         0.8000000000E+00       1.0000000

H     1.0     2.36859    -7.01718    -3.30941
S   3
1         0.1873113696E+02       0.3349460434E-01
2         0.2825394365E+01       0.2347269535E+00
3         0.6401216923E+00       0.8137573261E+00
S   1
1         0.1612777588E+00       1.0000000
P   1
1         0.1100000000E+01       1.0000000

H     1.0     1.74306    -1.21979    -0.70590
S   3
1         0.1873113696E+02       0.3349460434E-01
2         0.2825394365E+01       0.2347269535E+00
3         0.6401216923E+00       0.8137573261E+00
S   1
1         0.1612777588E+00       1.0000000
P   1
1         0.1100000000E+01       1.0000000

C     6.0     2.55073    -0.83932     0.07777
S   6
1         0.3047524880E+04       0.1834737132E-02
2         0.4573695180E+03       0.1403732281E-01
3         0.1039486850E+03       0.6884262226E-01
4         0.2921015530E+02       0.2321844432E+00
5         0.9286662960E+01       0.4679413484E+00
6         0.3163926960E+01       0.3623119853E+00
L   3
1         0.7868272350E+01      -0.1193324198E+00       0.6899906659E-01
2         0.1881288540E+01      -0.1608541517E+00       0.3164239610E+00
3         0.5442492580E+00       0.1143456438E+01       0.7443082909E+00
L   1
1         0.1687144782E+00       0.1000000000E+01       0.1000000000E+01
D   1
1         0.8000000000E+00       1.0000000

C     6.0     0.73772    -1.69370    -0.02395
S   6
1         0.3047524880E+04       0.1834737132E-02
2         0.4573695180E+03       0.1403732281E-01
3         0.1039486850E+03       0.6884262226E-01
4         0.2921015530E+02       0.2321844432E+00
5         0.9286662960E+01       0.4679413484E+00
6         0.3163926960E+01       0.3623119853E+00
L   3
1         0.7868272350E+01      -0.1193324198E+00       0.6899906659E-01
2         0.1881288540E+01      -0.1608541517E+00       0.3164239610E+00
3         0.5442492580E+00       0.1143456438E+01       0.7443082909E+00
L   1
1         0.1687144782E+00       0.1000000000E+01       0.1000000000E+01
D   1
1         0.8000000000E+00       1.0000000

C     6.0     0.72107    -2.27037     1.35700
S   6
1         0.3047524880E+04       0.1834737132E-02
2         0.4573695180E+03       0.1403732281E-01
3         0.1039486850E+03       0.6884262226E-01
4         0.2921015530E+02       0.2321844432E+00
5         0.9286662960E+01       0.4679413484E+00
6         0.3163926960E+01       0.3623119853E+00
L   3
1         0.7868272350E+01      -0.1193324198E+00       0.6899906659E-01
2         0.1881288540E+01      -0.1608541517E+00       0.3164239610E+00
3         0.5442492580E+00       0.1143456438E+01       0.7443082909E+00
L   1
1         0.1687144782E+00       0.1000000000E+01       0.1000000000E+01
D   1
1         0.8000000000E+00       1.0000000

H     1.0     0.09296    -0.85754    -0.20868
S   3
1         0.1873113696E+02       0.3349460434E-01
2         0.2825394365E+01       0.2347269535E+00
3         0.6401216923E+00       0.8137573261E+00
S   1
1         0.1612777588E+00       1.0000000
P   1
1         0.1100000000E+01       1.0000000

H     1.0     0.68332    -2.43431    -0.80053
S   3
1         0.1873113696E+02       0.3349460434E-01
2         0.2825394365E+01       0.2347269535E+00
3         0.6401216923E+00       0.8137573261E+00
S   1
1         0.1612777588E+00       1.0000000
P   1
1         0.1100000000E+01       1.0000000

H     1.0     1.46213    -3.04210     1.46870
S   3
1         0.1873113696E+02       0.3349460434E-01
2         0.2825394365E+01       0.2347269535E+00
3         0.6401216923E+00       0.8137573261E+00
S   1
1         0.1612777588E+00       1.0000000
P   1
1         0.1100000000E+01       1.0000000

H     1.0     0.82890    -1.51971     2.12367
S   3
1         0.1873113696E+02       0.3349460434E-01
2         0.2825394365E+01       0.2347269535E+00
3         0.6401216923E+00       0.8137573261E+00
S   1
1         0.1612777588E+00       1.0000000
P   1
1         0.1100000000E+01       1.0000000

H     1.0    -0.25770    -2.72300     1.46291
S   3
1         0.1873113696E+02       0.3349460434E-01
2         0.2825394365E+01       0.2347269535E+00
3         0.6401216923E+00       0.8137573261E+00
S   1
1         0.1612777588E+00       1.0000000
P   1
1         0.1100000000E+01       1.0000000

H     1.0     2.21412    -0.11399     0.78759
S   3
1         0.1873113696E+02       0.3349460434E-01
2         0.2825394365E+01       0.2347269535E+00
3         0.6401216923E+00       0.8137573261E+00
S   1
1         0.1612777588E+00       1.0000000
P   1
1         0.1100000000E+01       1.0000000

H     1.0     3.10178    -1.66326     0.47858
S   3
1         0.1873113696E+02       0.3349460434E-01
2         0.2825394365E+01       0.2347269535E+00
3         0.6401216923E+00       0.8137573261E+00
S   1
1         0.1612777588E+00       1.0000000
P   1
1         0.1100000000E+01       1.0000000

H     1.0     3.05092    -0.36991    -0.75391
S   3
1         0.1873113696E+02       0.3349460434E-01
2         0.2825394365E+01       0.2347269535E+00
3         0.6401216923E+00       0.8137573261E+00
S   1
1         0.1612777588E+00       1.0000000
P   1
1         0.1100000000E+01       1.0000000

 $END
 $MCP 
  MCP for W
  W
  6  4 14  3 10  2  7  1  5
     14.00(5F14.7)
     1.7084485     1.4967965     0.5171618   442.7694500     4.0857614
     0.2054194
   586.1858100    15.4020470     3.8158158  6368.7891000    13.7389240
     1.9630594
  0  0  0  1  1  1
  5154.0610000   900.1607800   211.7691400    46.0400320
335037.8300000 27179.2670000  4418.7733000  1009.0888000  1873.7607000
   189.0530400    82.5982720   149.8880800    25.4599450    10.6393660
     5.9445001     2.5262315     0.9589515     0.3757885
     0.0185049     0.1091685     0.4043247     0.5950894    -0.0050773
     0.0403966     0.0403628     0.0102794    -0.0353860    -0.0088374
     0.0000000     0.0000000     0.0000000     0.0000000
     0.0074587     0.0440022     0.1629698     0.2398607     0.0697708
    -0.5551188    -0.5546547     0.0086276    -0.0296998    -0.0074173
     0.0070034     0.0017989     0.0000000     0.0000000
     0.0035696     0.0210584     0.0779935     0.1147917     0.0396159
    -0.3151965    -0.3149330    -0.3061564     1.0539192     0.2632091
    -0.0102061    -0.0026215     0.0020471     0.0005005
     0.0018825     0.0111057     0.0411317     0.0605381     0.0117151
    -0.0932092    -0.0931313    -0.3246651     1.1176339     0.2791214
    -1.2436980    -0.3194478     0.0011888     0.0002906
   789.2865600   178.2132600    34.7949360
  5986.2300000  1191.9316000   350.5573300   121.2667300    53.9053970
    21.3290010     9.3404322     3.7674822     1.2995689     0.4528397
     0.0226117     0.1552271     0.4719701     0.4797224     0.0318772
     0.0394294    -0.0112405    -0.0098324     0.0000000     0.0000000
     0.0125682     0.0862794     0.2623337     0.2666427    -0.5180864
    -0.6408282    -0.0294945    -0.0257996     0.0061783     0.0046134
     0.0062320     0.0427820     0.1300794     0.1322160    -0.3876734
    -0.4795187     0.6851785     0.5993444     0.0134025     0.0100078
   138.4593000    20.0776780
   573.0870100   157.5417300    55.7867550    21.3666590    17.8820180
     6.9876290     2.6259202
     0.0390289     0.2379940     0.5406063     0.3670492     0.0085498
     0.0184719     0.0090526
     0.0197631     0.1205135     0.2737478     0.1858634    -0.3030884
    -0.6548266    -0.3209124
     3.6580732
    86.1065000    26.2401590     9.4869057     3.4227454     1.1101465
     0.0498832     0.2399711     0.4592960     0.4368574     0.1875478
 $END 
